 200 18 
 28 57 43 43 36 8 81 19 79 97 32 71 
 3 17 2 10 10 31 
 10 
 2 3 6 7 10 11 13 14 15 18 
 10 
 1 4 5 9 10 13 15 16 17 18 
 15 
 1 2 3 5 6 7 9 10 11 12 14 15 
 16 17 18 
 13 
 1 2 3 4 5 6 8 10 11 12 13 17 
 18 
 3 
 12 13 18 
 4 
 4 6 12 17 
 13 
 1 3 4 5 8 9 10 11 13 14 15 17 
 18 
 14 
 1 2 3 4 5 6 7 8 10 12 13 14 
 15 17 
 7 
 2 3 5 8 10 13 15 
 8 
 1 3 5 6 7 11 15 17 
 3 
 7 12 16 
 7 
 5 6 10 12 14 16 18 
 2 
 14 16 
 3 
 6 10 17 
 8 
 1 4 7 9 10 11 15 18 
 18 
 1 2 3 4 5 6 7 8 9 10 11 12 
 13 14 15 16 17 18 
 14 
 1 2 4 5 6 7 8 9 10 12 13 16 
 17 18 
 11 
 1 3 4 7 10 12 13 14 15 16 17 
 13 
 1 2 3 6 7 8 10 11 13 14 15 17 
 18 
 12 
 1 2 3 5 7 9 10 12 14 16 17 18 
 16 
 1 2 3 4 6 7 8 9 10 12 13 14 
 15 16 17 18 
 13 
 1 2 3 4 5 6 9 11 12 13 14 15 
 17 
 5 
 2 6 12 13 17 
 6 
 2 4 5 6 7 18 
 16 
 1 3 5 6 7 8 9 10 11 12 13 14 
 15 16 17 18 
 11 
 2 3 7 8 9 12 13 14 16 17 18 
 2 
 2 12 
 12 
 1 4 5 6 7 9 10 11 12 13 15 16 
 10 
 2 3 7 9 11 12 13 14 15 16 
 6 
 1 4 5 7 13 18 
 5 
 7 12 13 17 18 
 15 
 1 2 3 4 5 6 8 9 10 11 13 14 
 15 16 17 
 3 
 1 3 5 
 5 
 1 3 5 15 18 
 15 
 2 4 5 6 7 9 10 11 12 13 14 15 
 16 17 18 
 10 
 4 5 7 9 10 11 14 15 16 17 
 8 
 2 4 5 8 9 15 16 18 
 7 
 1 2 6 10 13 15 16 
 18 
 1 2 3 4 5 6 7 8 9 10 11 12 
 13 14 15 16 17 18 
 3 
 7 10 18 
 14 
 1 2 3 4 5 8 9 10 12 13 15 16 
 17 18 
 4 
 9 15 16 18 
 11 
 1 4 5 6 7 9 10 12 14 16 18 
 4 
 2 8 14 15 
 14 
 1 2 3 5 6 7 8 9 10 11 12 15 
 17 18 
 13 
 1 2 3 5 6 7 8 10 12 13 15 16 
 17 
 3 
 1 5 18 
 16 
 1 2 3 4 6 8 9 10 11 12 13 14 
 15 16 17 18 
 15 
 1 2 3 4 5 6 7 9 10 11 12 13 
 14 15 17 
 2 
 10 11 
 17 
 1 2 3 4 5 6 8 9 10 11 12 13 
 14 15 16 17 18 
 10 
 1 2 7 8 9 10 14 15 17 18 
 9 
 1 3 4 8 9 11 14 15 16 
 4 
 9 11 12 18 
 8 
 2 7 8 9 12 13 14 17 
 9 
 1 3 4 7 10 12 13 15 17 
 3 
 2 6 18 
 2 
 4 7 
 17 
 1 2 3 4 6 7 8 9 10 11 12 13 
 14 15 16 17 18 
 12 
 1 2 3 5 7 9 10 11 13 14 15 17 
 2 
 2 5 
 13 
 1 2 5 7 8 9 10 11 13 14 16 17 
 18 
 15 
 1 2 3 4 6 7 8 9 10 11 13 14 
 15 16 18 
 15 
 1 2 3 5 6 7 9 10 11 13 14 15 
 16 17 18 
 2 
 17 18 
 6 
 3 6 9 10 13 18 
 12 
 1 2 4 5 10 12 13 14 15 16 17 18 
 12 
 1 2 3 4 5 7 8 11 14 15 16 18 
 6 
 3 5 8 12 13 18 
 14 
 1 3 4 5 6 7 8 9 11 14 15 16 
 17 18 
 6 
 6 7 11 12 14 16 
 16 
 1 2 3 4 6 7 8 9 11 12 13 14 
 15 16 17 18 
 2 
 3 17 
 2 
 7 14 
 10 
 1 4 5 6 7 9 10 11 15 18 
 11 
 2 4 7 9 10 11 13 14 15 16 17 
 7 
 2 3 9 14 15 16 17 
 6 
 2 7 8 9 13 18 
 11 
 1 2 3 6 8 9 13 14 15 17 18 
 15 
 1 2 4 5 6 7 8 10 11 12 13 14 
 15 16 17 
 9 
 1 5 6 7 11 12 14 15 16 
 14 
 1 2 3 4 6 7 8 9 11 12 13 14 
 15 18 
 15 
 1 2 3 5 6 7 8 9 12 13 14 15 
 16 17 18 
 3 
 9 12 14 
 4 
 1 7 14 18 
 14 
 1 2 3 4 5 6 7 9 10 12 14 16 
 17 18 
 14 
 1 3 5 6 7 8 9 10 11 12 13 15 
 16 18 
 14 
 1 2 4 5 6 7 8 11 12 13 15 16 
 17 18 
 16 
 1 2 3 4 5 7 8 9 10 11 12 13 
 14 15 16 18 
 16 
 1 2 3 4 5 6 7 8 9 11 12 14 
 15 16 17 18 
 15 
 2 4 5 6 7 8 9 11 12 13 14 15 
 16 17 18 
 10 
 1 4 8 9 10 11 12 13 14 16 
 16 
 1 2 3 4 5 6 7 8 9 11 12 13 
 14 15 16 18 
 2 
 1 17 
 3 
 6 11 16 
 11 
 1 4 5 8 9 11 12 14 15 17 18 
 11 
 1 3 5 6 7 8 10 11 12 14 17 
 6 
 5 7 8 10 14 16 
 3 
 11 13 14 
 10 
 1 2 4 5 10 12 15 16 17 18 
 3 
 12 14 15 
 3 
 2 4 10 
 12 
 1 6 7 8 9 10 11 12 13 15 17 18 
 13 
 1 2 3 4 5 6 7 9 11 12 13 14 
 17 
 12 
 1 2 3 6 8 9 13 14 15 16 17 18 
 9 
 1 4 5 6 10 11 12 14 15 
 12 
 1 4 6 7 8 9 10 12 13 14 16 17 
 13 
 1 2 4 6 8 9 11 12 13 14 15 17 
 18 
 4 
 3 6 10 16 
 10 
 1 2 3 4 5 6 9 10 11 17 
 8 
 2 5 6 8 12 13 16 17 
 8 
 2 3 4 7 8 13 16 17 
 7 
 1 4 6 7 10 15 17 
 3 
 2 4 5 
 7 
 4 6 7 10 11 14 15 
 9 
 1 2 4 5 6 13 15 16 18 
 7 
 1 4 5 11 12 15 18 
 15 
 1 3 4 5 7 8 9 10 12 13 14 15 
 16 17 18 
 7 
 4 5 6 8 9 11 17 
 10 
 2 3 5 6 8 9 10 13 17 18 
 17 
 1 2 3 4 5 6 7 8 9 10 11 12 
 13 14 15 16 18 
 12 
 1 3 4 6 7 8 9 10 11 12 13 18 
 7 
 1 5 7 10 11 13 17 
 6 
 3 6 7 8 14 17 
 7 
 4 6 11 14 15 16 18 
 9 
 1 2 5 6 7 10 11 12 13 
 6 
 1 2 5 6 15 18 
 10 
 2 4 6 10 12 13 14 15 16 18 
 9 
 1 2 5 6 7 9 13 17 18 
 4 
 2 5 12 14 
 5 
 2 4 10 13 18 
 9 
 3 5 6 8 9 10 11 13 18 
 11 
 3 4 5 7 8 11 12 13 15 16 17 
 14 
 2 3 4 5 6 7 8 9 11 12 14 15 
 17 18 
 9 
 2 5 6 8 11 13 15 16 18 
 16 
 1 2 3 4 5 6 7 9 10 11 12 14 
 15 16 17 18 
 7 
 4 6 7 12 15 16 18 
 6 
 3 4 7 9 15 16 
 17 
 1 2 3 4 5 6 7 8 9 10 11 12 
 13 14 15 17 18 
 6 
 2 3 6 10 14 18 
 5 
 1 2 9 14 17 
 11 
 2 3 4 7 8 9 10 11 12 15 17 
 4 
 1 5 10 14 
 10 
 2 4 8 9 11 13 14 15 16 17 
 7 
 2 5 7 8 13 14 16 
 2 
 15 17 
 6 
 3 8 11 12 15 16 
 12 
 1 2 3 4 5 10 12 13 14 15 17 18 
 4 
 8 12 14 15 
 5 
 1 3 5 8 15 
 7 
 4 5 7 8 9 11 16 
 16 
 1 2 3 5 6 7 8 9 10 11 12 14 
 15 16 17 18 
 3 
 12 13 17 
 15 
 1 2 3 4 5 6 8 9 10 12 13 14 
 16 17 18 
 14 
 2 4 5 7 8 9 10 12 13 14 15 16 
 17 18 
 10 
 5 6 8 9 10 11 12 13 15 16 
 17 
 1 2 3 4 5 6 7 8 9 10 11 13 
 14 15 16 17 18 
 12 
 1 5 6 7 8 9 10 11 12 14 15 16 
 15 
 1 4 5 6 7 8 9 10 11 13 14 15 
 16 17 18 
 16 
 1 2 3 4 5 6 7 9 10 11 12 13 
 14 16 17 18 
 8 
 3 4 6 7 10 14 17 18 
 3 
 1 2 3 
 10 
 3 4 5 6 9 10 12 13 14 16 
 11 
 1 2 4 9 10 11 12 13 16 17 18 
 2 
 12 14 
 17 
 1 2 3 4 5 6 7 8 9 10 12 13 
 14 15 16 17 18 
 2 
 4 7 
 12 
 1 3 4 5 10 11 12 14 15 16 17 18 
 10 
 1 2 4 6 7 9 11 15 16 18 
 2 
 3 10 
 10 
 2 3 4 8 10 11 12 14 15 16 
 8 
 1 2 4 7 9 10 11 16 
 18 
 1 2 3 4 5 6 7 8 9 10 11 12 
 13 14 15 16 17 18 
 16 
 1 2 3 4 5 6 7 8 9 11 13 14 
 15 16 17 18 
 12 
 1 5 6 8 10 11 12 13 14 15 17 18 
 16 
 1 2 3 4 5 6 7 8 9 10 11 12 
 14 16 17 18 
 16 
 1 2 3 4 5 6 7 9 10 11 12 13 
 14 15 16 17 
 17 
 1 2 3 4 5 6 7 8 9 10 11 12 
 13 14 15 16 17 
 5 
 3 5 9 13 18 
 9 
 1 2 5 9 10 11 13 16 17 
 13 
 1 2 4 5 6 7 8 11 12 13 14 15 
 16 
 8 
 1 4 9 12 13 15 16 18 
 17 
 1 2 4 5 6 7 8 9 10 11 12 13 
 14 15 16 17 18 
 13 
 1 2 3 4 6 7 9 10 13 15 16 17 
 18 
 12 
 1 2 3 4 5 7 8 9 11 13 15 16 
 14 
 1 2 3 4 5 6 7 8 9 12 13 14 
 15 18 
 4 
 1 9 10 17 
 7 
 4 8 9 11 12 15 18 
 2 
 1 11 
 3 
 7 14 16 
 16 
 1 2 3 4 6 7 8 9 10 11 12 13 
 15 16 17 18 
 6 
 2 5 7 8 14 15 
 18 
 1 2 3 4 5 6 7 8 9 10 11 12 
 13 14 15 16 17 18 
 6 
 1 7 10 14 15 16 
 14 
 1 3 4 5 6 8 9 11 12 13 14 15 
 16 18 
 2 
 7 18 
 13 
 2 3 4 5 6 7 9 10 11 12 13 14 
 16 
 4 
 4 9 11 16 
 5 
 5 8 12 13 14 
 17 
 1 2 3 4 5 6 8 9 10 11 12 13 
 14 15 16 17 18 
 